; auto-generated by cpg.proof for function f
; goal: ReturnInRangeClaim(regime='witness', enforcement='trust', justification=None, kind='return_in_range', min=-1, max=None)
(set-logic QF_LIA)

(declare-const x Int)
(assert (>= x -2147483648))
(assert (<= x 2147483647))

; goal (negated; we ask Z3 to find a counterexample)
(assert (not (>= (ite (< x 0) -1 (+ x 1)) -1)))

(check-sat)
(exit)
